18,8	0,0	13,5	9,3	0,0	0,0	0,0	0,0	0,0	18,9
9,8	5,3	0,0	14,2	17,5	0,0	0,0	16,8	0,0	0,0
0,0	0,0	15,8	0,0	8,0	5,4	0,0	0,0	5,2	0,0
15,3	0,0	17,0	0,0	0,0	0,0	10,4	0,0	0,0	0,0
0,0	17,3	0,0	16,3	18,3	0,0	0,0	10,6	0,0	0,0
0,0	8,9	6,7	0,0	13,5	6,9	0,0	0,0	13,9	0,0
0,0	13,4	0,0	15,8	0,0	0,0	16,4	0,0	0,0	8,2
11,9	0,0	10,0	0,0	0,0	0,0	0,0	0,0	0,0	17,2
0,0	6,1	0,0	13,4	7,8	0,0	0,0	6,1	0,0	0,0
0,0	0,0	14,5	0,0	0,0	7,0	14,8	0,0	0,0	10,7
									
3,9	3,9	2,6	2,7	3,3	3,4	4,9	4,5	2,9	4,3
